\ LP format - for model browsing. Use MPS format to capture full model detail.
Maximize
  0 C0 + 0 C1 + 0 C2 + 0 C3 + 0 C4 + 0 C5 + 0 C6 + 0 C7 + 0 C8 + 0 C9
   + 0 C10 + 0 C11 + 0 C12 + 0 C13 + 0 C14 + 0 C15 + 0 C16 + 0 C17 + 0 C18
   + 0 C19 + 0 C20 + 0 C21 + 0 C22 + 0 C23 + 0 C24 + 0 C25 + 0 C26 + 0 C27
   + 0 C28 + 0 C29 + 0 C30 + 0 C31 + 0 C32 + 0 C33 + 0 C34 + C35
Subject To
 R0: 4 C0 + 2 C8 + 2 C11 + C25 + C32 = 1
 R1: C1 + 5 C3 + C4 + C26 + 2 C29 = 1
 R2: C2 + C4 + 5 C7 + C28 + 2 C29 = 1
 R3: C1 + C2 + C12 + C17 + 6 C29 = 1
 R4: C3 + 4 C5 + C7 + C13 + 2 C29 + C30 = 1
 R5: 4 C6 + C7 + C19 + 2 C28 + 2 C30 = 1
 R6: 4 C0 + C3 + C19 + 2 C26 + 2 C30 = 1
 R7: C0 + C5 + C6 + 3 C8 + C20 + 3 C30 = 1
 R8: 4 C6 + 2 C8 + 2 C9 + C27 + C32 = 1
 R9: 5 C8 + C9 + C10 + C11 + C15 + C21 = 1
 R10: 6 C9 + 2 C10 + C23 + C34 = 1
 R11: 2 C10 + 6 C11 + C24 + C34 = 1
 R12: C4 + C12 + 5 C13 + C18 + 2 C29 = 1
 R13: 2 C5 + 3 C13 + 3 C14 + C20 + C31 = 1
 R14: 2 C8 + C14 + 2 C15 + 4 C20 + C32 = 1
 R15: 2 C10 + 6 C15 + C22 + C34 = 1
 R16: C1 + C16 + 2 C17 + 6 C26 = 1
 R17: C2 + C16 + 2 C17 + 6 C28 = 1
 R18: C1 + C2 + 6 C4 + C12 + C16 = 1
 R19: C4 + C16 + C18 + 5 C19 + C26 + C28 = 1
 R20: C12 + C16 + 2 C17 + 6 C18 = 1
 R21: C17 + C18 + C26 + C28 + C29 + 5 C30 = 1
 R22: C13 + 2 C18 + C19 + 4 C20 + 2 C30 = 1
 R23: 4 C5 + C8 + C14 + 2 C21 + C25 + C27 = 1
 R24: 5 C14 + C15 + 2 C21 + C22 + C33 = 1
 R25: C10 + 6 C21 + C22 + C23 + C24 = 1
 R26: C11 + 2 C21 + C24 + 5 C25 + C33 = 1
 R27: C0 + 3 C3 + 2 C5 + 3 C25 + C31 = 1
 R28: C9 + 2 C21 + C23 + 5 C27 + C33 = 1
 R29: 2 C5 + C6 + 3 C7 + 3 C27 + C31 = 1
 R30: C3 + 2 C4 + C7 + C13 + C19 + 4 C31 = 1
 R31: C0 + C6 + 3 C19 + C20 + C31 + 3 C32 = 1
 R32: C9 + C11 + C15 + 5 C32 + C33 + C34 = 1
 R33: C14 + C25 + C27 + 4 C31 + C32 + 2 C33 = 1
 R34: C22 + C23 + C24 + 6 C33 + C34 = 1
 R35: C4 - C16 - C35 = 0
Bounds
 C0 <= 1
 C1 <= 1
 C2 <= 1
 C3 <= 1
 C4 <= 1
 C5 <= 1
 C6 <= 1
 C7 <= 1
 C8 <= 1
 C9 <= 1
 C10 = 0
 C11 <= 1
 C12 <= 1
 C13 <= 1
 C14 <= 1
 C15 <= 1
 C16 <= 1
 C17 <= 1
 C18 <= 1
 C19 <= 1
 C20 <= 1
 C21 <= 1
 C22 <= 1
 C23 <= 1
 C24 <= 1
 C25 <= 1
 C26 <= 1
 C27 <= 1
 C28 <= 1
 C29 <= 1
 C30 <= 1
 C31 <= 1
 C32 <= 1
 C33 <= 1
 C34 = 0
 C35 = 0
End
